20	5
0	5	3	5	4	2	1
1	5	18	8	20	19	16
2	3	18	20	7
3	6	16	8	18	11	19	6
4	2	9	20
5	6	6	20	8	11	19	16
6	2	14	13
7	1	12
8	2	13	14
9	2	18	7
10	5	8	6	16	11	19
11	3	17	14	15
12	1	10
13	2	15	17
14	1	21
15	1	21
16	1	21
17	1	21
18	1	21
19	1	21
20	1	21
21	0
0	0	0	0	0	0	0
1	6	1	0	0	0	2
2	5	0	5	0	0	2
3	6	0	0	2	0	0
4	8	2	3	3	2	1
5	6	1	0	0	2	0
6	9	4	0	0	2	0
7	10	0	0	0	0	2
8	6	0	0	4	0	0
9	8	5	0	0	3	0
10	5	1	3	0	0	0
11	3	1	0	0	0	1
12	4	2	0	4	1	0
13	9	1	3	4	0	3
14	4	5	0	0	4	0
15	8	0	1	2	0	3
16	5	0	0	0	4	5
17	7	5	0	1	2	0
18	1	2	3	1	1	2
19	8	0	0	0	3	5
20	10	5	0	4	2	2
21	0	0	0	0	0	0
5	6	5	5	6
